language ESSENCE' 1.0

letting jobs = 102
letting horizon = 808
letting resourcesRenew = 2
letting resourcesNonrenew = 2
letting resourceLimits = [57, 60, 475, 465]
letting successors = [[2, 3, 4, 5, 6, 7, 8, 9, 10, 11, 12, 13, 14, 15, 17, 18, 19, 20, 21, 23, 24, 25, 28, 30, 37, 41, 43, 44, 46, 55], [101, 100, 97, 96, 68, 65, 64, 57, 53, 48, 36, 35, 32, 27, 22], [100, 99, 96, 95, 90, 71, 70, 69, 68, 67, 66, 65, 60, 58, 57, 56, 53, 52, 51, 39, 38, 33], [96, 70, 69, 68, 65, 59, 58, 57, 47, 45, 38, 36, 34, 33, 26], [93, 71, 69, 68, 59, 58, 57, 56, 51, 50, 48, 40, 34, 33, 29], [100, 97, 70, 67, 63, 60, 57, 56, 53, 27, 16], [100, 99, 96, 94, 93, 86, 72, 69, 68, 65, 63, 61, 58, 56, 53, 52, 50, 42, 34], [100, 99, 98, 96, 94, 92, 71, 70, 69, 65, 64, 63, 53, 50, 42, 38, 31], [101, 99, 96, 93, 90, 89, 72, 71, 67, 65, 64, 63, 62, 58, 54, 53, 51, 50, 42], [101, 100, 98, 97, 96, 94, 91, 70, 69, 57, 56, 48, 47, 27], [98, 91, 89, 69, 65, 63, 58, 50, 34, 27], [100, 95, 94, 92, 91, 90, 64, 63, 61, 57, 50, 49, 38], [97, 95, 94, 93, 91, 87, 85, 83, 82, 80, 78, 68, 67, 66, 65, 64, 63, 62, 57, 51], [97, 95, 90, 79, 71, 65, 64, 58, 56, 54, 51, 45], [101, 98, 95, 94, 88, 85, 82, 81, 70, 68, 64, 61, 58, 48, 47], [99, 96, 95, 94, 92, 91, 90, 89, 88, 81, 80, 72, 69, 66, 65, 64, 62, 61, 58, 50], [96, 95, 94, 93, 91, 90, 89, 85, 84, 82, 73, 69, 68, 65, 59, 57, 51], [96, 90, 89, 86, 83, 70, 68, 67, 65, 61, 57, 33], [100, 97, 96, 94, 92, 91, 90, 88, 86, 85, 84, 82, 79, 77, 76, 67, 59, 58, 48], [101, 97, 95, 90, 89, 87, 84, 82, 80, 78, 76, 72, 70, 68, 67, 66, 62, 51], [96, 93, 90, 86, 80, 71, 68, 65, 64, 63, 61, 58, 57, 53, 50], [98, 94, 93, 89, 87, 84, 83, 82, 81, 75, 69, 66, 63, 58, 51, 47], [97, 96, 90, 89, 85, 84, 83, 78, 76, 73, 66, 59, 57, 53, 51], [98, 92, 91, 90, 88, 86, 85, 83, 82, 78, 77, 76, 73, 70, 68, 64, 61, 59, 57], [98, 97, 95, 94, 93, 89, 88, 85, 83, 81, 80, 79, 78, 77, 76, 67, 63, 49], [91, 90, 89, 84, 82, 78, 76, 67, 62, 51, 50], [95, 93, 90, 87, 85, 82, 81, 80, 78, 76, 75, 66, 51], [98, 93, 89, 88, 86, 81, 80, 78, 76, 73, 66, 61, 53], [97, 96, 94, 92, 81, 80, 79, 78, 74, 65, 62, 53], [96, 95, 93, 88, 87, 85, 82, 81, 79, 78, 77, 65, 63, 62], [90, 86, 85, 84, 81, 80, 79, 77, 76, 75, 62, 61, 58], [95, 89, 85, 84, 83, 77, 76, 75, 73, 70, 66, 58], [94, 91, 87, 85, 82, 80, 78, 77, 76, 75, 74, 64, 63], [92, 90, 87, 81, 80, 79, 77, 76, 75, 67, 64, 62], [94, 92, 85, 84, 83, 82, 81, 79, 75, 74, 73, 59], [98, 89, 88, 81, 80, 79, 77, 76, 75, 74, 56], [91, 90, 87, 85, 83, 79, 78, 77, 74, 62, 60], [97, 93, 89, 88, 87, 86, 83, 81, 80, 79, 78, 76, 75], [94, 89, 88, 85, 82, 81, 79, 78, 77, 76, 74, 63], [96, 95, 86, 82, 81, 78, 75, 65, 62, 61], [98, 94, 86, 83, 82, 81, 80, 79, 78, 77, 74, 73], [95, 91, 88, 82, 80, 77, 76, 75, 66, 57], [95, 88, 81, 79, 77, 75, 74, 56], [86, 82, 80, 79, 76, 75, 63, 58], [99, 91, 87, 85, 84, 80, 78, 76, 63], [94, 92, 85, 84, 80, 75, 73, 57], [90, 86, 80, 78, 77, 76, 74], [89, 87, 83, 75, 63, 62], [86, 84, 82, 75, 74, 62], [85, 83, 77, 75, 74, 73], [92, 88, 86, 77, 61], [89, 85, 83, 74, 62], [91, 87, 82, 77, 75], [86, 82, 81, 75, 74], [97, 90, 89, 88, 80], [84, 83, 73], [81, 79], [78, 74], [87, 80], [89, 76], [74], [73], [73], [84], [76], [79], [73], [75], [78], [93], [83], [83], [102], [102], [102], [102], [102], [102], [102], [102], [102], [102], [102], [102], [102], [102], [102], [102], [102], [102], [102], [102], [102], [102], [102], [102], [102], [102], [102], [102], [102], []]
letting durations = [[0], [2, 3, 6], [1, 6, 8], [4, 7, 10], [4, 5, 9], [6, 7, 8], [4, 8, 9], [4, 5, 9], [2, 8, 10], [3, 9, 10], [4, 6, 7], [4, 5, 6], [2, 6, 10], [2, 7, 9], [6, 7, 10], [1, 4, 9], [2, 4, 6], [1, 5, 6], [3, 6, 9], [1, 5, 7], [1, 6, 7], [1, 3, 7], [1, 2, 8], [2, 3, 9], [2, 3, 9], [4, 9, 10], [3, 4, 5], [4, 8, 9], [1, 2, 7], [1, 2, 5], [1, 2, 8], [5, 6, 9], [1, 5, 6], [1, 6, 8], [1, 8, 10], [1, 7, 10], [4, 6, 8], [2, 4, 9], [7, 8, 9], [2, 4, 10], [4, 7, 10], [2, 6, 9], [1, 3, 9], [2, 6, 7], [2, 7, 10], [1, 5, 9], [1, 3, 5], [4, 5, 6], [2, 3, 5], [1, 8, 9], [1, 8, 9], [2, 7, 8], [1, 2, 9], [3, 4, 7], [3, 4, 6], [6, 9, 10], [1, 3, 10], [3, 4, 6], [5, 6, 7], [1, 2, 5], [1, 2, 5], [2, 4, 9], [2, 6, 9], [1, 6, 7], [3, 4, 5], [3, 4, 9], [1, 2, 7], [5, 8, 10], [1, 3, 5], [2, 6, 8], [7, 8, 9], [4, 5, 7], [2, 9, 10], [5, 6, 7], [4, 8, 9], [2, 3, 9], [6, 7, 8], [5, 6, 10], [5, 6, 7], [2, 3, 9], [1, 4, 7], [5, 6, 7], [3, 5, 7], [1, 2, 10], [6, 7, 10], [2, 3, 8], [7, 8, 9], [2, 3, 5], [3, 7, 8], [2, 5, 7], [3, 4, 5], [6, 7, 9], [5, 8, 9], [2, 3, 6], [3, 5, 10], [3, 8, 10], [5, 6, 7], [5, 7, 10], [1, 5, 9], [3, 8, 10], [4, 6, 9], [0]]
letting resourceUsage = [[[0, 0, 0, 0]], [[2, 7, 6, 3], [1, 6, 5, 3], [1, 5, 2, 2]], [[9, 7, 10, 8], [6, 5, 9, 6], [4, 4, 9, 4]], [[2, 8, 7, 4], [2, 6, 4, 3], [2, 4, 1, 2]], [[6, 10, 8, 8], [3, 8, 5, 5], [2, 8, 3, 2]], [[5, 3, 10, 7], [3, 3, 9, 3], [3, 2, 8, 2]], [[5, 10, 8, 5], [5, 6, 7, 5], [5, 4, 7, 3]], [[9, 4, 8, 5], [8, 3, 7, 3], [5, 2, 4, 2]], [[9, 8, 5, 9], [6, 7, 5, 8], [4, 6, 4, 7]], [[9, 7, 5, 3], [8, 6, 4, 3], [8, 6, 3, 3]], [[5, 5, 5, 9], [3, 3, 5, 5], [1, 3, 4, 5]], [[8, 8, 8, 7], [7, 5, 8, 5], [5, 3, 8, 4]], [[10, 6, 3, 7], [10, 6, 2, 5], [10, 5, 2, 4]], [[5, 4, 7, 9], [2, 3, 6, 9], [1, 1, 4, 7]], [[10, 7, 5, 5], [8, 6, 5, 4], [8, 6, 4, 3]], [[10, 7, 8, 3], [9, 6, 7, 3], [9, 5, 7, 1]], [[8, 4, 6, 5], [4, 4, 2, 3], [4, 4, 1, 2]], [[8, 6, 7, 8], [8, 3, 5, 6], [7, 3, 5, 5]], [[6, 8, 8, 4], [3, 3, 7, 3], [3, 2, 6, 3]], [[8, 9, 8, 10], [7, 5, 7, 4], [6, 5, 7, 1]], [[3, 6, 7, 5], [3, 3, 5, 5], [3, 1, 5, 5]], [[3, 6, 9, 6], [1, 5, 7, 4], [1, 5, 1, 4]], [[6, 7, 10, 5], [5, 5, 9, 5], [4, 1, 9, 3]], [[5, 7, 9, 7], [4, 3, 7, 6], [4, 3, 5, 6]], [[5, 10, 4, 8], [5, 9, 4, 6], [5, 8, 4, 6]], [[5, 8, 6, 6], [5, 6, 4, 6], [5, 3, 3, 6]], [[6, 5, 10, 10], [6, 4, 9, 8], [6, 3, 9, 8]], [[10, 9, 8, 9], [8, 7, 8, 8], [7, 7, 8, 8]], [[3, 4, 6, 7], [2, 3, 5, 6], [2, 3, 3, 6]], [[6, 5, 8, 2], [5, 4, 8, 2], [5, 4, 8, 1]], [[8, 2, 5, 3], [7, 2, 5, 2], [7, 2, 3, 2]], [[8, 6, 7, 10], [6, 4, 5, 9], [6, 4, 5, 8]], [[5, 8, 8, 7], [4, 6, 4, 3], [4, 3, 4, 2]], [[8, 6, 5, 9], [8, 6, 4, 7], [8, 5, 3, 5]], [[4, 7, 7, 5], [4, 6, 5, 5], [4, 6, 3, 5]], [[6, 4, 5, 4], [6, 3, 4, 2], [6, 1, 4, 1]], [[4, 6, 2, 4], [3, 6, 2, 4], [2, 5, 2, 4]], [[6, 6, 9, 4], [5, 5, 5, 4], [4, 5, 5, 3]], [[4, 8, 7, 2], [2, 6, 4, 2], [2, 5, 2, 2]], [[8, 9, 1, 10], [8, 8, 1, 8], [8, 5, 1, 8]], [[4, 9, 4, 9], [2, 7, 4, 7], [2, 4, 3, 6]], [[8, 7, 5, 2], [7, 4, 4, 2], [1, 3, 3, 2]], [[8, 6, 9, 6], [8, 4, 7, 6], [7, 3, 6, 5]], [[10, 8, 3, 8], [8, 7, 3, 6], [7, 4, 3, 6]], [[4, 8, 8, 3], [4, 6, 6, 2], [4, 2, 5, 2]], [[8, 8, 7, 8], [5, 6, 6, 6], [5, 5, 6, 6]], [[10, 2, 3, 10], [10, 2, 2, 8], [10, 2, 2, 7]], [[7, 8, 10, 6], [6, 6, 7, 3], [5, 2, 4, 2]], [[8, 9, 2, 7], [4, 6, 1, 7], [2, 4, 1, 5]], [[8, 10, 8, 3], [8, 7, 7, 2], [7, 1, 5, 2]], [[2, 9, 9, 6], [2, 6, 7, 5], [2, 6, 4, 4]], [[8, 9, 8, 8], [8, 6, 5, 7], [8, 4, 5, 7]], [[2, 8, 7, 4], [2, 7, 5, 2], [2, 4, 4, 2]], [[4, 10, 3, 6], [2, 8, 2, 5], [2, 8, 2, 3]], [[5, 10, 5, 8], [4, 5, 4, 8], [4, 4, 3, 8]], [[8, 9, 9, 4], [5, 9, 7, 2], [4, 9, 5, 1]], [[10, 9, 8, 3], [10, 7, 8, 2], [10, 7, 7, 1]], [[9, 6, 7, 4], [8, 5, 7, 4], [6, 3, 6, 3]], [[7, 4, 7, 9], [5, 3, 7, 7], [2, 3, 6, 7]], [[7, 8, 9, 8], [3, 8, 6, 8], [1, 8, 6, 8]], [[8, 6, 2, 6], [7, 6, 1, 6], [7, 6, 1, 5]], [[6, 8, 8, 10], [5, 6, 5, 8], [5, 2, 3, 8]], [[4, 7, 7, 6], [3, 6, 6, 6], [2, 4, 3, 6]], [[1, 4, 7, 9], [1, 4, 6, 5], [1, 3, 6, 3]], [[6, 6, 8, 7], [4, 3, 7, 3], [4, 2, 7, 1]], [[3, 9, 8, 7], [2, 6, 8, 5], [1, 3, 6, 5]], [[8, 9, 3, 4], [6, 8, 3, 3], [5, 8, 2, 3]], [[5, 8, 4, 3], [4, 6, 4, 2], [2, 5, 2, 2]], [[8, 8, 5, 4], [6, 8, 4, 3], [6, 8, 2, 1]], [[2, 9, 6, 10], [1, 6, 3, 6], [1, 6, 2, 5]], [[7, 10, 7, 2], [6, 7, 3, 2], [4, 6, 2, 2]], [[4, 10, 7, 10], [3, 10, 6, 5], [2, 10, 4, 2]], [[10, 3, 7, 7], [9, 3, 7, 6], [9, 3, 7, 5]], [[3, 6, 10, 9], [3, 3, 10, 8], [2, 3, 10, 8]], [[5, 6, 5, 5], [3, 6, 4, 4], [2, 1, 1, 2]], [[8, 7, 10, 3], [5, 6, 4, 2], [4, 1, 3, 2]], [[10, 7, 3, 5], [7, 6, 3, 5], [6, 6, 3, 2]], [[4, 4, 3, 6], [4, 2, 3, 6], [4, 2, 3, 5]], [[8, 8, 9, 6], [7, 8, 6, 4], [6, 8, 4, 1]], [[5, 9, 7, 4], [3, 7, 6, 4], [3, 7, 3, 4]], [[3, 7, 5, 8], [3, 7, 5, 5], [3, 7, 3, 3]], [[7, 8, 8, 10], [6, 5, 6, 8], [3, 4, 6, 5]], [[6, 7, 1, 9], [3, 5, 1, 7], [2, 5, 1, 7]], [[2, 7, 8, 3], [1, 4, 6, 2], [1, 3, 5, 2]], [[7, 10, 5, 9], [5, 6, 5, 8], [5, 4, 5, 7]], [[7, 9, 7, 8], [5, 7, 4, 7], [4, 7, 2, 6]], [[8, 8, 5, 7], [8, 7, 5, 6], [7, 2, 4, 6]], [[8, 9, 1, 10], [6, 8, 1, 8], [6, 7, 1, 8]], [[3, 2, 5, 6], [3, 2, 4, 5], [2, 2, 3, 5]], [[9, 10, 8, 3], [8, 6, 6, 3], [8, 5, 6, 3]], [[3, 9, 7, 4], [3, 7, 4, 3], [2, 4, 3, 1]], [[8, 8, 5, 1], [8, 8, 4, 1], [8, 8, 3, 1]], [[9, 7, 9, 4], [7, 5, 9, 2], [7, 3, 9, 1]], [[9, 8, 3, 7], [9, 6, 3, 7], [9, 2, 2, 7]], [[6, 7, 7, 9], [6, 7, 6, 8], [2, 5, 6, 8]], [[7, 8, 8, 5], [5, 8, 8, 5], [4, 8, 8, 5]], [[8, 6, 5, 6], [8, 5, 5, 5], [8, 5, 2, 3]], [[6, 8, 7, 4], [5, 4, 7, 2], [5, 2, 7, 1]], [[8, 7, 3, 10], [8, 6, 1, 8], [8, 6, 1, 6]], [[7, 8, 8, 10], [3, 8, 5, 7], [2, 8, 3, 6]], [[9, 3, 5, 7], [9, 2, 4, 4], [7, 2, 4, 4]], [[0, 0, 0, 0]]]
